steom_phenol_svpd_robust.loc      # LOC::GBW_in     
steom_phenol_svpd_robust.loc      # LOC::GBW_out    
0      # LOC::omin       
25      # LOC::omax       
6      # LOC::LocMet     
0      # LOC::op         
128      # LOC::MaxIter    
   9.9999999999999995e-07 # LOC::Tol        
   1.0000000000000000e-08 # LOC::TolRel     
   9.4999999999999996e-01 # LOC::T_Strong   
   8.4999999999999998e-01 # LOC::T_Bond     
2      # LOC::PrintLevel 
1      # LOC::Cholesky   
0      # LOC::Randomize  
0      # LOC::IAOBasis   
0      # LOC::PopMethod  
0      # LOC::OrbSpread  
16      # LOC::DVDNRoots     
40      # LOC::DVDNRootsFinal
10      # LOC::DVDMaxDim     
128      # LOC::DVDMaxIter    
  -5.0000000000000000e+00 # LOC::T_Core     
   9.4999999999999996e-01 # LOC::TCutFrag   
1      # LOC::LocOcc     
0      # LOC::LocVirt    
0      # LOC::LocMetVirt 
0      # LOC::PrintLMOs  
0      # LOC::FragmentReorder
1      # LOC::NAttempts  
0      # LOC::my_id      
